* ENCODING=ISO-8859-1
NAME          CPLEX
ROWS
 N  obj1    
 G  c1      
 G  c2      
 G  c3      
 G  c4      
 G  c5      
 G  c6      
 G  c7      
 G  c8      
 G  c9      
 G  c10     
 G  c11     
 G  c12     
 G  c13     
 G  c14     
 G  c15     
 G  c16     
 G  c17     
 G  c18     
 G  c19     
 G  c20     
 G  c21     
 G  c22     
 G  c23     
 G  c24     
 G  c25     
 G  c26     
 G  c27     
 G  c28     
 G  c29     
 G  c30     
 G  c31     
 G  c32     
 G  c33     
 G  c34     
 G  c35     
 G  c36     
 G  c37     
 G  c38     
 G  c39     
 G  c40     
 G  c41     
 G  c42     
 G  c43     
 G  c44     
 G  c45     
 G  c46     
 G  c47     
 G  c48     
 G  c49     
 G  c50     
 G  c51     
 G  c52     
 G  c53     
 G  c54     
 G  c55     
 G  c56     
 G  c57     
 G  c58     
 G  c59     
 G  c60     
 G  c61     
 G  c62     
 G  c63     
 G  c64     
 G  c65     
 G  c66     
 G  c67     
 G  c68     
 G  c69     
 G  c70     
COLUMNS
    MARK0000  'MARKER'                 'INTORG'
    x1        obj1                            1
    x1        c9                            135
    x1        c14                           747
    x1        c26                           328
    x1        c32                           611
    x1        c34                           865
    x1        c37                           162
    x1        c59                           635
    x1        c62                           952
    x1        c68                           366
    x2        obj1                            1
    x2        c3                            140
    x2        c9                            572
    x2        c12                           834
    x2        c24                           442
    x2        c27                           256
    x2        c40                           301
    x2        c53                           345
    x2        c69                           905
    x3        obj1                            1
    x3        c5                            294
    x3        c11                           339
    x3        c16                           274
    x3        c21                           897
    x3        c27                           988
    x3        c33                           706
    x3        c52                           419
    x3        c61                           371
    x4        obj1                            1
    x4        c5                            508
    x4        c20                           285
    x4        c22                           818
    x4        c33                           250
    x4        c35                           735
    x4        c36                           276
    x4        c53                           994
    x4        c56                           619
    x4        c61                           687
    x5        obj1                            1
    x5        c17                           141
    x5        c36                           183
    x5        c43                           214
    x5        c60                           668
    x6        obj1                            1
    x6        c16                           561
    x6        c34                           788
    x6        c42                           937
    x6        c51                           640
    x6        c63                           488
    x6        c69                           123
    x7        obj1                            1
    x7        c2                            842
    x7        c11                           545
    x7        c15                           494
    x7        c22                           412
    x7        c23                           884
    x7        c70                           432
    x8        obj1                            1
    x8        c3                            995
    x8        c48                           979
    x8        c53                           598
    x9        obj1                            1
    x9        c20                          1000
    x9        c28                           110
    x9        c46                           623
    x9        c52                           220
    x9        c54                           679
    x9        c57                           551
    x9        c63                           907
    x9        c65                           239
    x10       obj1                            1
    x10       c10                           327
    x10       c23                           467
    x10       c28                           247
    x10       c30                           976
    x10       c33                           876
    x10       c35                           630
    x10       c43                           385
    x10       c44                           578
    x10       c45                           415
    x10       c67                           614
    x10       c68                           256
    x10       c70                           666
    x11       obj1                            1
    x11       c4                            504
    x11       c24                           491
    x11       c31                           507
    x11       c33                           400
    x11       c48                           608
    x11       c56                           635
    x11       c68                           175
    x12       obj1                            1
    x12       c2                            122
    x12       c19                           829
    x12       c22                           793
    x12       c24                           549
    x12       c31                           132
    x12       c39                           463
    x12       c51                           309
    x12       c52                           192
    x12       c55                           522
    x13       obj1                            1
    x13       c8                            461
    x13       c9                            325
    x13       c32                           901
    x13       c43                           147
    x13       c65                           160
    x13       c66                           785
    x14       obj1                            1
    x14       c16                           977
    x14       c21                           614
    x14       c35                           636
    x14       c57                           625
    x14       c61                           480
    x15       obj1                            1
    x15       c1                            859
    x15       c8                            817
    x15       c22                           397
    x15       c24                           795
    x15       c48                           181
    x15       c57                           253
    x16       obj1                            1
    x16       c5                            829
    x16       c23                           293
    x16       c36                           548
    x16       c41                           564
    x16       c42                           194
    x16       c45                           895
    x16       c52                           776
    x16       c67                           618
    x17       obj1                            1
    x17       c10                           696
    x17       c25                           512
    x17       c44                           816
    x17       c55                           693
    x17       c62                           553
    x18       obj1                            1
    x18       c11                           732
    x18       c33                           981
    x18       c38                           717
    x18       c44                           308
    x18       c49                           486
    x18       c52                           902
    x19       obj1                            1
    x19       c22                           696
    x19       c23                           710
    x19       c24                           899
    x19       c27                           619
    x19       c30                           944
    x19       c49                           997
    x19       c58                           498
    x20       obj1                            1
    x20       c6                            182
    x20       c8                            841
    x20       c12                           859
    x20       c24                           547
    x20       c28                           635
    x20       c50                           659
    x20       c63                           312
    x21       obj1                            1
    x21       c13                           711
    x21       c17                           827
    x21       c25                           920
    x21       c27                           371
    x21       c29                           566
    x21       c44                           637
    x21       c51                           520
    x21       c53                           407
    x21       c59                           490
    x21       c63                           879
    x22       obj1                            1
    x22       c12                           430
    x22       c52                           634
    x22       c54                           375
    x22       c64                           658
    x23       obj1                            1
    x23       c6                            310
    x23       c7                            490
    x23       c8                            537
    x23       c15                           532
    x23       c21                           640
    x23       c26                           557
    x23       c34                           435
    x23       c35                           573
    x23       c38                           330
    x23       c54                           161
    x23       c55                           727
    x24       obj1                            1
    x24       c24                           437
    x24       c34                           833
    x24       c36                           615
    x24       c46                           550
    x25       obj1                            1
    x25       c13                           297
    x25       c19                           450
    x25       c39                           703
    x25       c47                           233
    x25       c58                           715
    x25       c66                           817
    x26       obj1                            1
    x26       c2                            525
    x26       c3                            419
    x26       c11                           892
    x26       c46                           951
    x26       c58                           201
    x26       c62                           949
    x26       c69                           305
    x27       obj1                            1
    x27       c3                            390
    x27       c31                           634
    x27       c42                           525
    x27       c43                           290
    x27       c55                           881
    x27       c66                           287
    x28       obj1                            1
    x28       c13                           260
    x28       c21                           832
    x28       c24                           851
    x28       c45                           757
    x28       c64                           653
    x28       c67                           946
    x28       c69                           541
    x29       obj1                            1
    x29       c5                            491
    x29       c7                            609
    x29       c8                            567
    x29       c10                           145
    x29       c20                           284
    x29       c27                           226
    x29       c32                           976
    x29       c65                           639
    x29       c68                           475
    x30       obj1                            1
    x30       c17                           150
    x30       c20                           242
    x30       c28                           357
    x30       c30                           938
    x30       c39                           636
    x30       c41                           598
    x30       c43                           145
    x30       c44                           722
    x30       c47                           378
    x30       c54                           551
    x30       c55                           650
    x30       c60                           529
    x30       c67                           289
    x31       obj1                            1
    x31       c13                           580
    x31       c31                           913
    x31       c44                           626
    x31       c46                           468
    x31       c51                           381
    x31       c52                           124
    x31       c53                           342
    x32       obj1                            1
    x32       c1                            370
    x32       c3                            543
    x32       c28                           994
    x32       c32                           922
    x32       c34                           913
    x32       c70                           345
    x33       obj1                            1
    x33       c14                           464
    x33       c39                           102
    x33       c50                           120
    x33       c57                           654
    x33       c60                           556
    x34       obj1                            1
    x34       c16                           680
    x34       c17                           426
    x34       c32                           202
    x34       c36                           339
    x34       c41                           172
    x34       c51                           289
    x34       c53                           390
    x34       c63                           610
    x34       c69                           189
    x35       obj1                            1
    x35       c3                            452
    x35       c4                            190
    x35       c6                            263
    x35       c49                           256
    x35       c53                           672
    x35       c54                           134
    x35       c61                           438
    x35       c66                           415
    x35       c67                           448
    x36       obj1                            1
    x36       c3                            385
    x36       c10                           889
    x36       c15                           349
    x36       c17                           534
    x36       c19                           368
    x36       c27                           497
    x36       c37                           988
    x36       c42                           613
    x36       c46                           128
    x36       c47                           789
    x36       c53                           888
    x36       c63                           899
    x37       obj1                            1
    x37       c11                           824
    x37       c14                           919
    x37       c16                           490
    x37       c22                           735
    x37       c24                           397
    x37       c28                           441
    x37       c31                           174
    x37       c40                           513
    x37       c57                           478
    x37       c69                           874
    x38       obj1                            1
    x38       c23                           632
    x38       c46                           441
    x38       c57                           532
    x38       c59                           522
    x38       c65                           565
    x38       c67                           966
    x39       obj1                            1
    x39       c1                            334
    x39       c28                           359
    x39       c37                           470
    x39       c47                           405
    x39       c52                           888
    x40       obj1                            1
    x40       c1                            309
    x40       c4                            874
    x40       c8                            912
    x40       c23                           414
    x40       c31                           847
    x40       c33                           478
    x40       c35                           677
    x40       c51                           748
    x40       c55                           194
    x40       c56                           752
    x40       c65                           902
    x40       c66                           763
    x40       c67                           849
    x41       obj1                            1
    x41       c9                            525
    x41       c24                           575
    x41       c32                           408
    x41       c40                           660
    x42       obj1                            1
    x42       c1                            681
    x42       c8                            763
    x42       c17                           842
    x42       c37                           782
    x42       c48                           468
    x42       c54                           974
    x42       c70                           719
    x43       obj1                            1
    x43       c18                           686
    x43       c22                           622
    x43       c25                           449
    x43       c27                           568
    x43       c52                           924
    x44       obj1                            1
    x44       c8                            899
    x44       c25                           745
    x44       c29                           730
    x44       c36                           114
    x44       c46                           756
    x44       c62                           623
    x45       obj1                            1
    x45       c7                            176
    x45       c13                           935
    x45       c15                           142
    x45       c26                           304
    x45       c33                           952
    x45       c47                           397
    x45       c49                           907
    x45       c60                           498
    x45       c63                           543
    x45       c66                           533
    x46       obj1                            1
    x46       c6                            696
    x46       c12                           500
    x46       c29                           209
    x46       c48                           331
    x46       c56                           158
    x47       obj1                            1
    x47       c13                           527
    x47       c18                           518
    x47       c44                           645
    x48       obj1                            1
    x48       c5                            886
    x48       c10                           412
    x48       c43                           712
    x48       c48                           121
    x48       c50                           720
    x48       c62                           849
    x48       c68                           484
    x49       obj1                            1
    x49       c4                            731
    x49       c13                           626
    x49       c14                           893
    x49       c18                           854
    x49       c23                           169
    x49       c25                           480
    x49       c31                           851
    x49       c57                           654
    x49       c61                           328
    x49       c65                           405
    x50       obj1                            1
    x50       c9                            152
    x50       c13                           988
    x50       c17                           956
    x50       c22                           347
    x50       c26                           135
    x50       c63                           501
    x50       c69                           677
    x51       obj1                            1
    x51       c1                            301
    x51       c10                           231
    x51       c16                           528
    x51       c19                           132
    x51       c22                           928
    x51       c56                           606
    x51       c66                           148
    x52       obj1                            1
    x52       c11                           633
    x52       c26                           565
    x52       c55                           756
    x52       c56                           887
    x52       c70                           340
    x53       obj1                            1
    x53       c10                           572
    x53       c12                           990
    x53       c20                           700
    x53       c27                           549
    x53       c31                           934
    x53       c44                           547
    x54       obj1                            1
    x54       c34                           298
    x54       c59                           310
    x54       c66                           943
    x54       c68                           151
    x54       c69                           562
    x55       obj1                            1
    x55       c56                           302
    x56       obj1                            1
    x56       c15                           807
    x56       c26                           107
    x56       c27                           471
    x56       c43                           575
    x56       c49                           305
    x56       c51                           223
    x56       c55                           262
    x56       c58                           569
    x56       c64                           387
    x57       obj1                            1
    x57       c2                            788
    x57       c19                           747
    x57       c44                           718
    x57       c55                           663
    x57       c59                           204
    x57       c61                           309
    x57       c70                           258
    x58       obj1                            1
    x58       c3                            503
    x58       c8                            690
    x58       c20                           522
    x58       c23                           437
    x58       c31                           554
    x58       c32                           728
    x58       c36                           669
    x58       c45                           270
    x58       c65                           471
    x59       obj1                            1
    x59       c7                            228
    x59       c11                           228
    x59       c16                           880
    x59       c18                           681
    x59       c20                           621
    x59       c25                           916
    x59       c26                           970
    x59       c29                           941
    x59       c30                           579
    x59       c32                           344
    x59       c48                           695
    x59       c60                           381
    x60       obj1                            1
    x60       c2                            203
    x60       c25                           970
    x60       c32                           187
    x60       c55                           559
    x61       obj1                            1
    x61       c7                            178
    x61       c26                           827
    x61       c34                           777
    x61       c38                           894
    x61       c46                           520
    x61       c50                           766
    x61       c51                           349
    x61       c53                           668
    x61       c59                           587
    x61       c64                           411
    x61       c68                           887
    x62       obj1                            1
    x62       c16                           468
    x62       c45                           952
    x62       c48                           572
    x63       obj1                            1
    x63       c6                            948
    x63       c29                           914
    x63       c38                           869
    x63       c39                           388
    x63       c43                           853
    x63       c62                           787
    x63       c64                           816
    x64       obj1                            1
    x64       c8                            901
    x64       c13                           255
    x64       c16                           772
    x64       c35                           824
    x64       c45                           263
    x64       c51                           687
    x64       c57                           439
    x65       obj1                            1
    x65       c6                            139
    x65       c13                           298
    x65       c20                           404
    x65       c33                           601
    x65       c40                           880
    x65       c43                           288
    x65       c45                           491
    x65       c48                           670
    x65       c59                           248
    x65       c67                           895
    x66       obj1                            1
    x66       c2                            380
    x66       c46                           395
    x66       c52                           149
    x66       c64                           513
    x67       obj1                            1
    x67       c6                            631
    x67       c26                           187
    x67       c28                           271
    x67       c29                           304
    x67       c33                           544
    x67       c41                           663
    x67       c43                           525
    x67       c64                           844
    x68       obj1                            1
    x68       c3                            894
    x68       c33                           176
    x68       c50                           981
    x68       c53                           564
    x68       c67                           896
    x69       obj1                            1
    x69       c3                            636
    x69       c63                           182
    x69       c65                           467
    x69       c70                           718
    x70       obj1                            1
    x70       c10                           227
    x70       c20                           467
    x70       c57                           828
    x70       c60                           656
    x70       c64                           171
    x70       c66                           784
    x70       c67                           231
    x70       c70                           750
    MARK0001  'MARKER'                 'INTEND'
RHS
    rhs       c1                           1427
    rhs       c2                           1430
    rhs       c3                           2679
    rhs       c4                           1150
    rhs       c5                           1504
    rhs       c6                           1585
    rhs       c7                            841
    rhs       c8                           3694
    rhs       c9                            855
    rhs       c10                          1750
    rhs       c11                          2097
    rhs       c12                          1807
    rhs       c13                          2739
    rhs       c14                          1512
    rhs       c15                          1162
    rhs       c16                          2815
    rhs       c17                          1938
    rhs       c18                          1370
    rhs       c19                          1263
    rhs       c20                          2263
    rhs       c21                          1492
    rhs       c22                          2874
    rhs       c23                          2003
    rhs       c24                          2992
    rhs       c25                          2496
    rhs       c26                          1990
    rhs       c27                          2273
    rhs       c28                          1707
    rhs       c29                          1832
    rhs       c30                          1719
    rhs       c31                          2773
    rhs       c32                          2640
    rhs       c33                          2982
    rhs       c34                          2455
    rhs       c35                          2038
    rhs       c36                          1372
    rhs       c37                          1201
    rhs       c38                          1405
    rhs       c39                          1146
    rhs       c40                          1177
    rhs       c41                           999
    rhs       c42                          1135
    rhs       c43                          2067
    rhs       c44                          2799
    rhs       c45                          2022
    rhs       c46                          2416
    rhs       c47                          1101
    rhs       c48                          2313
    rhs       c49                          1476
    rhs       c50                          1623
    rhs       c51                          2073
    rhs       c52                          2614
    rhs       c53                          2934
    rhs       c54                          1437
    rhs       c55                          2954
    rhs       c56                          1980
    rhs       c57                          2507
    rhs       c58                           992
    rhs       c59                          1498
    rhs       c60                          1644
    rhs       c61                          1307
    rhs       c62                          2357
    rhs       c63                          2661
    rhs       c64                          2227
    rhs       c65                          1924
    rhs       c66                          2738
    rhs       c67                          3376
    rhs       c68                          1397
    rhs       c69                          2088
    rhs       c70                          2114
BOUNDS
 LI bnd       x1        0
 LI bnd       x2        0
 LI bnd       x3        0
 LI bnd       x4        0
 LI bnd       x5        0
 LI bnd       x6        0
 LI bnd       x7        0
 LI bnd       x8        0
 LI bnd       x9        0
 LI bnd       x10       0
 LI bnd       x11       0
 LI bnd       x12       0
 LI bnd       x13       0
 LI bnd       x14       0
 LI bnd       x15       0
 LI bnd       x16       0
 LI bnd       x17       0
 LI bnd       x18       0
 LI bnd       x19       0
 LI bnd       x20       0
 LI bnd       x21       0
 LI bnd       x22       0
 LI bnd       x23       0
 LI bnd       x24       0
 LI bnd       x25       0
 LI bnd       x26       0
 LI bnd       x27       0
 LI bnd       x28       0
 LI bnd       x29       0
 LI bnd       x30       0
 LI bnd       x31       0
 LI bnd       x32       0
 LI bnd       x33       0
 LI bnd       x34       0
 LI bnd       x35       0
 LI bnd       x36       0
 LI bnd       x37       0
 LI bnd       x38       0
 LI bnd       x39       0
 LI bnd       x40       0
 LI bnd       x41       0
 LI bnd       x42       0
 LI bnd       x43       0
 LI bnd       x44       0
 LI bnd       x45       0
 LI bnd       x46       0
 LI bnd       x47       0
 LI bnd       x48       0
 LI bnd       x49       0
 LI bnd       x50       0
 LI bnd       x51       0
 LI bnd       x52       0
 LI bnd       x53       0
 LI bnd       x54       0
 LI bnd       x55       0
 LI bnd       x56       0
 LI bnd       x57       0
 LI bnd       x58       0
 LI bnd       x59       0
 LI bnd       x60       0
 LI bnd       x61       0
 LI bnd       x62       0
 LI bnd       x63       0
 LI bnd       x64       0
 LI bnd       x65       0
 LI bnd       x66       0
 LI bnd       x67       0
 LI bnd       x68       0
 LI bnd       x69       0
 LI bnd       x70       0
ENDATA
